\ LP format - for model browsing. Use MPS format to capture full model detail.
Maximize
  0 x[0,0,0] + 0 x[0,0,1] + 0 x[1,0,0] + 0 x[1,0,1] + 0 x[2,0,0]
   + 0 x[2,0,1] + 0 x[3,0,0] + 0 x[3,0,1] + 0 x[4,0,0] + 0 x[4,0,1]
   + 0 x[5,0,0] + 0 x[5,0,1] + 0 y[0,0] + 0 y[0,1] + 5 y[1,0] + 5 y[1,1]
   + 8 y[2,0] + 8 y[2,1] + y[3,0] + y[3,1] + 4 y[4,0] + 4 y[4,1] + 0 y[5,0]
   + 0 y[5,1] + 0 u_im[0,0] + 0 u_im[0,1] + 0 u_jm[0,0] + 0 u_jm[0,1]
Subject To
 Constraint_3.2a: x[0,1,0] + x[0,1,1] + x[0,2,0] + x[0,2,1] + x[0,3,0]
   + x[0,3,1] + x[0,4,0] + x[0,4,1] - x[1,5,0] - x[1,5,1] - x[2,5,0]
   - x[2,5,1] - x[3,5,0] - x[3,5,1] - x[4,5,0] - x[4,5,1] = 0
 Constraint_3.2b: x[0,1,0] + x[0,1,1] + x[0,2,0] + x[0,2,1] + x[0,3,0]
   + x[0,3,1] + x[0,4,0] + x[0,4,1] + x[0,5,0] + x[0,5,1] = 2
 Constraint_3.2c: x[0,5,0] + x[0,5,1] + x[1,5,0] + x[1,5,1] + x[2,5,0]
   + x[2,5,1] + x[3,5,0] + x[3,5,1] + x[4,5,0] + x[4,5,1] = 2
 Constraint_3.3: y[1,0] + y[1,1] <= 1
 Constraint_3.3: y[2,0] + y[2,1] <= 1
 Constraint_3.3: y[3,0] + y[3,1] <= 1
 Constraint_3.3: y[4,0] + y[4,1] <= 1
 Constraint_3.4a: x[0,1,0] - x[1,2,0] - x[1,3,0] - x[1,4,0] - x[1,5,0]
   + x[2,1,0] + x[3,1,0] + x[4,1,0] = 0
 Constraint_3.4b: x[0,1,0] + x[1,1,0] + x[2,1,0] + x[3,1,0] + x[4,1,0]
   - y[1,0] = 0
 Constraint_3.4c: x[1,1,0] + x[1,2,0] + x[1,3,0] + x[1,4,0] + x[1,5,0]
   - y[1,0] = 0
 Constraint_3.4a: x[0,2,0] + x[1,2,0] - x[2,1,0] - x[2,3,0] - x[2,4,0]
   - x[2,5,0] + x[3,2,0] + x[4,2,0] = 0
 Constraint_3.4b: x[0,2,0] + x[1,2,0] + x[2,2,0] + x[3,2,0] + x[4,2,0]
   - y[2,0] = 0
 Constraint_3.4c: x[2,1,0] + x[2,2,0] + x[2,3,0] + x[2,4,0] + x[2,5,0]
   - y[2,0] = 0
 Constraint_3.4a: x[0,3,0] + x[1,3,0] + x[2,3,0] - x[3,1,0] - x[3,2,0]
   - x[3,4,0] - x[3,5,0] + x[4,3,0] = 0
 Constraint_3.4b: x[0,3,0] + x[1,3,0] + x[2,3,0] + x[3,3,0] + x[4,3,0]
   - y[3,0] = 0
 Constraint_3.4c: x[3,1,0] + x[3,2,0] + x[3,3,0] + x[3,4,0] + x[3,5,0]
   - y[3,0] = 0
 Constraint_3.4a: x[0,4,0] + x[1,4,0] + x[2,4,0] + x[3,4,0] - x[4,1,0]
   - x[4,2,0] - x[4,3,0] - x[4,5,0] = 0
 Constraint_3.4b: x[0,4,0] + x[1,4,0] + x[2,4,0] + x[3,4,0] + x[4,4,0]
   - y[4,0] = 0
 Constraint_3.4c: x[4,1,0] + x[4,2,0] + x[4,3,0] + x[4,4,0] + x[4,5,0]
   - y[4,0] = 0
 Constraint_3.4a: x[0,1,1] - x[1,2,1] - x[1,3,1] - x[1,4,1] - x[1,5,1]
   + x[2,1,1] + x[3,1,1] + x[4,1,1] = 0
 Constraint_3.4b: x[0,1,1] + x[1,1,1] + x[2,1,1] + x[3,1,1] + x[4,1,1]
   - y[1,1] = 0
 Constraint_3.4c: x[1,1,1] + x[1,2,1] + x[1,3,1] + x[1,4,1] + x[1,5,1]
   - y[1,1] = 0
 Constraint_3.4a: x[0,2,1] + x[1,2,1] - x[2,1,1] - x[2,3,1] - x[2,4,1]
   - x[2,5,1] + x[3,2,1] + x[4,2,1] = 0
 Constraint_3.4b: x[0,2,1] + x[1,2,1] + x[2,2,1] + x[3,2,1] + x[4,2,1]
   - y[2,1] = 0
 Constraint_3.4c: x[2,1,1] + x[2,2,1] + x[2,3,1] + x[2,4,1] + x[2,5,1]
   - y[2,1] = 0
 Constraint_3.4a: x[0,3,1] + x[1,3,1] + x[2,3,1] - x[3,1,1] - x[3,2,1]
   - x[3,4,1] - x[3,5,1] + x[4,3,1] = 0
 Constraint_3.4b: x[0,3,1] + x[1,3,1] + x[2,3,1] + x[3,3,1] + x[4,3,1]
   - y[3,1] = 0
 Constraint_3.4c: x[3,1,1] + x[3,2,1] + x[3,3,1] + x[3,4,1] + x[3,5,1]
   - y[3,1] = 0
 Constraint_3.4a: x[0,4,1] + x[1,4,1] + x[2,4,1] + x[3,4,1] - x[4,1,1]
   - x[4,2,1] - x[4,3,1] - x[4,5,1] = 0
 Constraint_3.4b: x[0,4,1] + x[1,4,1] + x[2,4,1] + x[3,4,1] + x[4,4,1]
   - y[4,1] = 0
 Constraint_3.4c: x[4,1,1] + x[4,2,1] + x[4,3,1] + x[4,4,1] + x[4,5,1]
   - y[4,1] = 0
 Constraint_3.5: 3 x[0,1,0] + 6 x[0,2,0] + 6 x[0,3,0] + 3 x[0,4,0]
   + 4 x[1,2,0] + 5 x[1,3,0] + 3 x[1,4,0] + 3 x[1,5,0] + 4 x[2,1,0]
   + 3 x[2,3,0] + 5 x[2,4,0] + 6 x[2,5,0] + 5 x[3,1,0] + 3 x[3,2,0]
   + 4 x[3,4,0] + 6 x[3,5,0] + 3 x[4,1,0] + 5 x[4,2,0] + 4 x[4,3,0]
   + 3 x[4,5,0] <= 15
 Constraint_3.5: 3 x[0,1,1] + 6 x[0,2,1] + 6 x[0,3,1] + 3 x[0,4,1]
   + 4 x[1,2,1] + 5 x[1,3,1] + 3 x[1,4,1] + 3 x[1,5,1] + 4 x[2,1,1]
   + 3 x[2,3,1] + 5 x[2,4,1] + 6 x[2,5,1] + 5 x[3,1,1] + 3 x[3,2,1]
   + 4 x[3,4,1] + 6 x[3,5,1] + 3 x[4,1,1] + 5 x[4,2,1] + 4 x[4,3,1]
   + 3 x[4,5,1] <= 15
 Constraint_3.6a: u_im[1,0] >= 2
 Constraint_3.6b: u_im[1,0] <= 6
 Constraint_3.6a: u_im[2,0] >= 2
 Constraint_3.6b: u_im[2,0] <= 6
 Constraint_3.6a: u_im[3,0] >= 2
 Constraint_3.6b: u_im[3,0] <= 6
 Constraint_3.6a: u_im[4,0] >= 2
 Constraint_3.6b: u_im[4,0] <= 6
 Constraint_3.6a: u_im[5,0] >= 2
 Constraint_3.6b: u_im[5,0] <= 6
 Constraint_3.6a: u_im[1,1] >= 2
 Constraint_3.6b: u_im[1,1] <= 6
 Constraint_3.6a: u_im[2,1] >= 2
 Constraint_3.6b: u_im[2,1] <= 6
 Constraint_3.6a: u_im[3,1] >= 2
 Constraint_3.6b: u_im[3,1] <= 6
 Constraint_3.6a: u_im[4,1] >= 2
 Constraint_3.6b: u_im[4,1] <= 6
 Constraint_3.6a: u_im[5,1] >= 2
 Constraint_3.6b: u_im[5,1] <= 6
 Constraint_3.7: 5 x[1,1,0] + u_im[1,0] - u_jm[1,0] <= 4
 Constraint_3.7: 5 x[1,2,0] + u_im[1,0] - u_jm[2,0] <= 4
 Constraint_3.7: 5 x[1,3,0] + u_im[1,0] - u_jm[3,0] <= 4
 Constraint_3.7: 5 x[1,4,0] + u_im[1,0] - u_jm[4,0] <= 4
 Constraint_3.7: 5 x[1,5,0] + u_im[1,0] - u_jm[5,0] <= 4
 Constraint_3.7: 5 x[2,1,0] + u_im[2,0] - u_jm[1,0] <= 4
 Constraint_3.7: 5 x[2,2,0] + u_im[2,0] - u_jm[2,0] <= 4
 Constraint_3.7: 5 x[2,3,0] + u_im[2,0] - u_jm[3,0] <= 4
 Constraint_3.7: 5 x[2,4,0] + u_im[2,0] - u_jm[4,0] <= 4
 Constraint_3.7: 5 x[2,5,0] + u_im[2,0] - u_jm[5,0] <= 4
 Constraint_3.7: 5 x[3,1,0] + u_im[3,0] - u_jm[1,0] <= 4
 Constraint_3.7: 5 x[3,2,0] + u_im[3,0] - u_jm[2,0] <= 4
 Constraint_3.7: 5 x[3,3,0] + u_im[3,0] - u_jm[3,0] <= 4
 Constraint_3.7: 5 x[3,4,0] + u_im[3,0] - u_jm[4,0] <= 4
 Constraint_3.7: 5 x[3,5,0] + u_im[3,0] - u_jm[5,0] <= 4
 Constraint_3.7: 5 x[4,1,0] + u_im[4,0] - u_jm[1,0] <= 4
 Constraint_3.7: 5 x[4,2,0] + u_im[4,0] - u_jm[2,0] <= 4
 Constraint_3.7: 5 x[4,3,0] + u_im[4,0] - u_jm[3,0] <= 4
 Constraint_3.7: 5 x[4,4,0] + u_im[4,0] - u_jm[4,0] <= 4
 Constraint_3.7: 5 x[4,5,0] + u_im[4,0] - u_jm[5,0] <= 4
 Constraint_3.7: 5 x[5,1,0] + u_im[5,0] - u_jm[1,0] <= 4
 Constraint_3.7: 5 x[5,2,0] + u_im[5,0] - u_jm[2,0] <= 4
 Constraint_3.7: 5 x[5,3,0] + u_im[5,0] - u_jm[3,0] <= 4
 Constraint_3.7: 5 x[5,4,0] + u_im[5,0] - u_jm[4,0] <= 4
 Constraint_3.7: 5 x[5,5,0] + u_im[5,0] - u_jm[5,0] <= 4
 Constraint_3.7: 5 x[1,1,1] + u_im[1,1] - u_jm[1,1] <= 4
 Constraint_3.7: 5 x[1,2,1] + u_im[1,1] - u_jm[2,1] <= 4
 Constraint_3.7: 5 x[1,3,1] + u_im[1,1] - u_jm[3,1] <= 4
 Constraint_3.7: 5 x[1,4,1] + u_im[1,1] - u_jm[4,1] <= 4
 Constraint_3.7: 5 x[1,5,1] + u_im[1,1] - u_jm[5,1] <= 4
 Constraint_3.7: 5 x[2,1,1] + u_im[2,1] - u_jm[1,1] <= 4
 Constraint_3.7: 5 x[2,2,1] + u_im[2,1] - u_jm[2,1] <= 4
 Constraint_3.7: 5 x[2,3,1] + u_im[2,1] - u_jm[3,1] <= 4
 Constraint_3.7: 5 x[2,4,1] + u_im[2,1] - u_jm[4,1] <= 4
 Constraint_3.7: 5 x[2,5,1] + u_im[2,1] - u_jm[5,1] <= 4
 Constraint_3.7: 5 x[3,1,1] + u_im[3,1] - u_jm[1,1] <= 4
 Constraint_3.7: 5 x[3,2,1] + u_im[3,1] - u_jm[2,1] <= 4
 Constraint_3.7: 5 x[3,3,1] + u_im[3,1] - u_jm[3,1] <= 4
 Constraint_3.7: 5 x[3,4,1] + u_im[3,1] - u_jm[4,1] <= 4
 Constraint_3.7: 5 x[3,5,1] + u_im[3,1] - u_jm[5,1] <= 4
 Constraint_3.7: 5 x[4,1,1] + u_im[4,1] - u_jm[1,1] <= 4
 Constraint_3.7: 5 x[4,2,1] + u_im[4,1] - u_jm[2,1] <= 4
 Constraint_3.7: 5 x[4,3,1] + u_im[4,1] - u_jm[3,1] <= 4
 Constraint_3.7: 5 x[4,4,1] + u_im[4,1] - u_jm[4,1] <= 4
 Constraint_3.7: 5 x[4,5,1] + u_im[4,1] - u_jm[5,1] <= 4
 Constraint_3.7: 5 x[5,1,1] + u_im[5,1] - u_jm[1,1] <= 4
 Constraint_3.7: 5 x[5,2,1] + u_im[5,1] - u_jm[2,1] <= 4
 Constraint_3.7: 5 x[5,3,1] + u_im[5,1] - u_jm[3,1] <= 4
 Constraint_3.7: 5 x[5,4,1] + u_im[5,1] - u_jm[4,1] <= 4
 Constraint_3.7: 5 x[5,5,1] + u_im[5,1] - u_jm[5,1] <= 4
Bounds
Binaries
 x[0,0,0] x[0,0,1] x[0,1,0] x[0,1,1] x[0,2,0] x[0,2,1] x[0,3,0] x[0,3,1]
 x[0,4,0] x[0,4,1] x[0,5,0] x[0,5,1] x[1,0,0] x[1,0,1] x[1,1,0] x[1,1,1]
 x[1,2,0] x[1,2,1] x[1,3,0] x[1,3,1] x[1,4,0] x[1,4,1] x[1,5,0] x[1,5,1]
 x[2,0,0] x[2,0,1] x[2,1,0] x[2,1,1] x[2,2,0] x[2,2,1] x[2,3,0] x[2,3,1]
 x[2,4,0] x[2,4,1] x[2,5,0] x[2,5,1] x[3,0,0] x[3,0,1] x[3,1,0] x[3,1,1]
 x[3,2,0] x[3,2,1] x[3,3,0] x[3,3,1] x[3,4,0] x[3,4,1] x[3,5,0] x[3,5,1]
 x[4,0,0] x[4,0,1] x[4,1,0] x[4,1,1] x[4,2,0] x[4,2,1] x[4,3,0] x[4,3,1]
 x[4,4,0] x[4,4,1] x[4,5,0] x[4,5,1] x[5,0,0] x[5,0,1] x[5,1,0] x[5,1,1]
 x[5,2,0] x[5,2,1] x[5,3,0] x[5,3,1] x[5,4,0] x[5,4,1] x[5,5,0] x[5,5,1]
 y[0,0] y[0,1] y[1,0] y[1,1] y[2,0] y[2,1] y[3,0] y[3,1] y[4,0] y[4,1]
 y[5,0] y[5,1]
Generals
 u_im[0,0] u_im[0,1] u_im[1,0] u_im[1,1] u_im[2,0] u_im[2,1] u_im[3,0]
 u_im[3,1] u_im[4,0] u_im[4,1] u_im[5,0] u_im[5,1] u_jm[0,0] u_jm[0,1]
 u_jm[1,0] u_jm[1,1] u_jm[2,0] u_jm[2,1] u_jm[3,0] u_jm[3,1] u_jm[4,0]
 u_jm[4,1] u_jm[5,0] u_jm[5,1]
End
